Instance: E135-07f.dat
Class:  3
  134 --- number of customers (no depot)
   26 --- number of vehicles
  262 --- number of items
Capacity - height - width of vehicles
  2210     40     20
Node - x - y - demand
    0    -6.0    15.0     0.0
    1     3.2     5.1    30.0
    2    24.6     8.3   226.0
    3    23.3     1.3    37.0
    4    27.8     8.3    24.0
    5    29.0     8.0    36.0
    6    31.0     8.0     1.0
    7    33.5    10.5    31.0
    8    30.0    10.5    24.0
    9    29.0    10.0    30.0
   10    26.5    11.7    24.0
   11    28.3    14.3    24.0
   12    27.0    14.3    32.0
   13    23.5    19.0    24.0
   14    26.0    20.0    24.0
   15    25.0    20.0    19.0
   16    20.5    19.0    24.0
   17   -20.0    13.0    18.0
   18   -21.0    14.0    36.0
   19   -30.0    30.0   115.0
   20    -5.0    30.0    24.0
   21     1.3    17.8    24.0
   22     1.8    13.8    61.0
   23     1.8    13.1    71.0
   24     2.0    13.6    36.0
   25     4.8    17.0    18.0
   26     7.0    15.0    30.0
   27     9.8    16.6    31.0
   28    11.4    14.5    36.0
   29    14.4    11.3    18.0
   30    11.0    12.0  1004.0
   31     9.3    10.7    18.0
   32     0.6     2.8    34.0
   33   -30.0   -10.0   504.0
   34     2.0     0.0    18.0
   35    14.5     1.0    39.0
   36    15.0     1.8    24.0
   37    17.2     2.4    37.0
   38    17.2     4.2    24.0
   39    18.2     4.4    99.0
   40    20.3     2.1    24.0
   41    22.8     3.1    24.0
   42    23.0     4.0    36.0
   43    20.8     4.0    30.0
   44    20.8     4.0    25.0
   45    18.5     6.4    24.0
   46   -14.0    16.0   122.0
   47    -0.5     6.9   196.0
   48     3.2     2.8   229.0
   49     5.6     1.8    83.0
   50     8.7     2.8    18.0
   51     9.0     3.3    24.0
   52     9.0     3.5   306.0
   53    11.2     3.3    18.0
   54    10.8     4.7    20.0
   55    11.5     4.6    18.0
   56    12.3     4.7    24.0
   57    12.3     5.5    22.0
   58    11.2     6.9    24.0
   59     6.5     9.7    18.0
   60     5.8     8.5    18.0
   61     7.2     6.0    24.0
   62     7.2     4.0    24.0
   63    -4.0    -4.0    30.0
   64    -3.0     1.2    24.0
   65   -40.0    49.0    40.0
   66   -15.0    10.0   166.0
   67   -11.0   -10.0   254.0
   68   -25.0   -20.0   187.0
   69   -25.0   -35.0    94.0
   70   -24.0   -35.0    17.0
   71   -18.0    10.0   285.0
   72    -2.0    10.0    24.0
   73    -4.0     8.0    24.0
   74    -3.0     5.0   205.0
   75     2.1     6.2    23.0
   76    -1.7     3.0    28.0
   77    -3.0     2.0    51.0
   78    -7.0     0.0    49.0
   79    -3.0    -6.0    19.0
   80   -30.0   -11.0   262.0
   81   -62.0   -10.0   120.0
   82    -8.0    30.0   266.0
   83     1.0    60.0   704.0
   84    10.0    52.0    38.0
   85    10.0    52.0    18.0
   86    10.0    51.0    30.0
   87    16.0    29.0    25.0
   88    26.0    21.0    12.0
   89    16.0    21.0    18.0
   90    15.5    19.2    25.0
   91     0.0    16.5    35.0
   92    17.2    14.3    18.0
   93    16.5     7.8    12.0
   94    16.9     7.7    20.0
   95    18.0     2.0  1126.0
   96    16.2     4.0     9.0
   97    15.0     4.0    36.0
   98    15.0     3.0    12.0
   99    14.8     2.4    31.0
  100    14.5     3.0    96.0
  101    13.0     2.6    27.0
  102    11.8     3.0    54.0
  103    12.0     4.0   137.0
  104    12.8     3.6    12.0
  105    13.4     5.5    58.0
  106  -150.0     8.0   206.0
  107  -152.0     1.0   178.0
  108  -152.0     0.0   486.0
  109  -142.0   -31.0    36.0
  110   -78.0   -19.0   261.0
  111   -78.0   -18.0   135.0
  112   -78.0   -17.0   135.0
  113   -80.0   -14.0   373.0
  114  -118.0    22.0   535.0
  115  -107.0    30.0    42.0
  116   -85.0    14.0     9.0
  117   -78.0    15.0   110.0
  118   -15.0    16.0    36.0
  119   -62.0    32.0    18.0
  120  -120.0   -20.0   726.0
  121   -90.0   -22.0   187.0
  122   -79.0   -19.0    23.0
  123   -79.0   -18.5   134.0
  124   -79.0   -18.0    47.0
  125   -78.0   -17.5    51.0
  126   -79.0   -17.0    43.0
  127   -80.0   -17.0    79.0
  128   -80.0   -16.0   112.0
  129   -80.0   -15.0    91.0
  130   -48.0    37.0   232.0
  131   -85.0    15.0   483.0
  132   -62.0    -9.0   828.0
  133   -15.0    -4.0    11.0
  134    -1.0     3.2    12.0
Node - number of items - h - w for each item
    0   0
    1   3    5   16    5   13   26    4
    2   1   18    4
    3   1    6   10
    4   2    4   14   14    8
    5   2   22    4   23    3
    6   1    4    8
    7   2   30    4   23    4
    8   1    6   12
    9   1    5   12
   10   3    7   14    6   13   12    6
   11   2   12    7   11    5
   12   1   16    3
   13   3    6   14    4   12   11    7
   14   3    8   10    7    6   15    3
   15   2    4   13    7   12
   16   1    9    5
   17   2    5   15   12    6
   18   2   12    8   22    3
   19   2    7   14    8   10
   20   3    7   14   15    5    9    5
   21   3   13    7    6    7    5    6
   22   2    7   13   17    4
   23   2   16    7    8    5
   24   2   30    3   22    3
   25   2    4   11   20    2
   26   1   17    4
   27   1   20    3
   28   1   15    7
   29   2   15    5   15    4
   30   3    6   15   23    3   16    2
   31   1   12    6
   32   1   24    3
   33   1    4    6
   34   2    6   14   22    2
   35   1    7   10
   36   1    4    6
   37   1    9    5
   38   3    5   11   16    7   22    3
   39   2    7    7    9    5
   40   1   11    6
   41   3    9    7   10    5   28    4
   42   1    8    7
   43   2   11    6   27    2
   44   2    5    6    5    6
   45   3   13    6    9    5   21    3
   46   2    6   14    8   10
   47   1   19    4
   48   1    6   11
   49   2    9    4    9    4
   50   2   23    4   12    4
   51   1    5   14
   52   1   31    2
   53   2    9    5   14    4
   54   3    5    9   13    4   21    3
   55   3   14    4    9    4   16    3
   56   3    4   14    5    6   26    2
   57   3    7   15   32    3   13    3
   58   2    5   15   19    4
   59   2    8   11   26    4
   60   1   15    7
   61   3    5   10    9    5   12    4
   62   3    7   13   14    3   20    2
   63   3    4    9   12    5   20    4
   64   3    8    9   11    7    7    7
   65   3    5   15   14    7   12    4
   66   2    8    7   14    6
   67   3    6   14    6   14   14    3
   68   1    7   11
   69   3    5   11   15    6   10    5
   70   3   22    3   15    3   18    2
   71   1    6   16
   72   1   10    8
   73   1   31    3
   74   1   14    3
   75   2    4   12   12    6
   76   3    7   16    6   10   23    3
   77   3    4   16    5    8   15    5
   78   2    8    8   18    3
   79   3   12    7    4    7   14    5
   80   2   30    3   18    2
   81   1    5   15
   82   3    5   11   13    7   15    3
   83   2    5   11   16    3
   84   1    7   14
   85   3    6   10    8    5   30    4
   86   2   13    7    8    6
   87   2    5   15    7    6
   88   2    6    6   12    2
   89   2    6   12   12    4
   90   3    6   16    7    9   25    4
   91   2   30    2   23    2
   92   1    7    8
   93   3    5    9   16    7   12    3
   94   2   20    4   23    2
   95   1    6   11
   96   3    8   13   10    6   15    4
   97   3   11    7   20    3   19    3
   98   1    8    8
   99   3    8   12   10    8    6    7
  100   1   13    5
  101   3    6    6   20    4   27    3
  102   3    4   11   22    4   12    4
  103   2   13    7   26    3
  104   3   14    5    9    5   29    3
  105   1   16    2
  106   2    6    8   17    4
  107   2   10    8    4    8
  108   2    4   10   20    4
  109   1    5   16
  110   1   20    3
  111   1    9    6
  112   2    7    8    6    8
  113   3   10    7   18    3   17    3
  114   3    8   14   10    6   24    3
  115   3   13    5   26    4   31    2
  116   3    4   11   13    7   12    7
  117   3   13    7   11    5   31    3
  118   1    9    4
  119   3    4   11   10    6   14    4
  120   1   14    6
  121   2    5    8   16    4
  122   2   14    5   30    2
  123   1   10    5
  124   2    7   15   10    5
  125   1   10    6
  126   1    9    7
  127   3    6   11    8    9   24    2
  128   1   17    3
  129   1    6    9
  130   1    8    7
  131   1    8    5
  132   2    5   10   15    6
  133   1   14    4
  134   2    4   16   13    8
